NAME: instance_1506
TYPE: TSP
DIMENSION: 20
EDGE_WEIGHT_TYPE: EUC_2D
NODE_COORD_SECTION
0 35.06 36.42
1 75.94 59.12
2 21.62 12.90
3 60.74 10.43
4 45.24 30.66
5 5.09 84.87
6 30.39 50.52
7 2.18 75.24
8 14.62 85.18
9 12.08 12.56
10 52.51 24.87
11 40.31 49.63
12 54.24 25.39
13 65.97 88.72
14 61.93 11.54
15 57.91 22.35
16 82.70 90.06
17 59.08 27.89
18 33.01 38.08
19 49.36 50.64
EOF
